NPROCS=0
This instance is clustered!
Gurobi Optimizer version 9.0.0 build v9.0.0rc2 (linux64)
Optimize a model with 22 rows, 122 columns and 242 nonzeros
Model fingerprint: 0xfc54abe2
Variable types: 1 continuous, 121 integer (121 binary)
Coefficient statistics:
  Matrix range     [1e+00, 1e+00]
  Objective range  [1e+00, 7e+01]
  Bounds range     [1e+00, 1e+00]
  RHS range        [1e+00, 1e+00]
Presolve removed 2 rows and 30 columns
Presolve time: 0.00s
Presolved: 20 rows, 92 columns, 182 nonzeros
Variable types: 1 continuous, 91 integer (91 binary)

Root relaxation: objective 1.254488e+02, 20 iterations, 0.00 seconds

    Nodes    |    Current Node    |     Objective Bounds      |     Work
 Expl Unexpl |  Obj  Depth IntInf | Incumbent    BestBd   Gap | It/Node Time

     0     0  125.44878    0    8          -  125.44878      -     -    0s
H    0     0                     257.8857086  125.44878  51.4%     -    0s
     0     0  164.99796    0   18  257.88571  164.99796  36.0%     -    0s
     0     0  165.71919    0   19  257.88571  165.71919  35.7%     -    0s
H    0     0                     251.8583666  165.71919  34.2%     -    0s
     0     0  168.00408    0   20  251.85837  168.00408  33.3%     -    0s
H    0     0                     195.3086946  169.36591  13.3%     -    0s
     0     2  169.36591    0   22  195.30869  169.36591  13.3%     -    0s
*   85    11               7     188.9851343  182.21064  3.58%   5.1    0s

Cutting planes:
  Gomory: 1
  Lazy constraints: 39

Explored 117 nodes (593 simplex iterations) in 0.06 seconds
Thread count was 12 (of 12 available processors)

Solution count 4: 188.985 195.309 251.858 257.886 

Optimal solution found (tolerance 1.00e-04)
Best objective 1.889851343058e+02, best bound 1.889851343058e+02, gap 0.0000%

User-callback calls 368, time in user-callback 0.00 sec
/projects/academic/josewalt/caigao/RRARP_BD/BendersDecomp/ret/model_outs/n_9_m_9_algo_3.out
 =====>>>>> Solution is written to file in <../ret/model_outs> !!!
===>> All Done!
